
50
7297

156 240
104 160
370 760
222 456
182 280
37 76
156 240
208 320
74 152
222 456
78 120
259 532
130 200
208 320
104 160
296 608
74 152
78 120
26 40
52 80
185 380
370 760
370 760
78 120
52 80
208 320
26 40
111 228
234 360
74 152
296 608
208 320
260 400
260 400
222 456
52 80
185 380
111 228
156 240
148 304
156 240
156 240
52 80
222 456
52 80
333 684
182 280
78 120
74 152
208 320
